MARKOV
1050
 2 2 2 2 2 2 2 2 2 2 2 2 2 2 2 2 2 2 2 2 2 2 2 2 2 2 2 2 2 2 2 2 2 2 2 2 2 2 2 2 2 2 2 2 2 2 2 2 2 2 2 2 2 2 2 2 2 2 2 2 2 2 2 2 2 2 2 2 2 2 2 2 2 2 2 2 2 2 2 2 2 2 2 2 2 2 2 2 2 2 2 2 2 2 2 2 2 2 2 2 2 2 2 2 2 2 2 2 2 2 2 2 2 2 2 2 2 2 2 2 2 2 2 2 2 2 2 2 2 2 2 2 2 2 2 2 2 2 2 2 2 2 2 2 2 2 2 2 2 2 2 2 2 2 2 2 2 2 2 2 2 2 2 2 2 2 2 2 2 2 2 2 2 2 2 2 2 2 2 2 2 2 2 2 2 2 2 2 2 2 2 2 2 2 2 2 2 2 2 2 2 2 2 2 2 2 2 2 2 2 2 2 2 2 2 2 2 2 2 2 2 2 2 2 2 2 2 2 2 2 2 2 2 2 2 2 2 2 2 2 2 2 2 2 2 2 2 2 2 2 2 2 2 2 2 2 2 2 2 2 2 2 2 2 2 2 2 2 2 2 2 2 2 2 2 2 2 2 2 2 2 2 2 2 2 2 2 2 2 2 2 2 2 2 2 2 2 2 2 2 2 2 2 2 2 2 2 2 2 2 2 2 2 2 2 2 2 2 2 2 2 2 2 2 2 2 2 2 2 2 2 2 2 2 2 2 2 2 2 2 2 2 2 2 2 2 2 2 2 2 2 2 2 2 2 2 2 2 2 2 2 2 2 2 2 2 2 2 2 2 2 2 2 2 2 2 2 2 2 2 2 2 2 2 2 2 2 2 2 2 2 2 2 2 2 2 2 2 2 2 2 2 2 2 2 2 2 2 2 2 2 2 2 2 2 2 2 2 2 2 2 2 2 2 2 2 2 2 2 2 2 2 2 2 2 2 2 2 2 2 2 2 2 2 2 2 2 2 2 2 2 2 2 2 2 2 2 2 2 2 2 2 2 2 2 2 2 2 2 2 2 2 2 2 2 2 2 2 2 2 2 2 2 2 2 2 2 2 2 2 2 2 2 2 2 2 2 2 2 2 2 2 2 2 2 2 2 2 2 2 2 2 2 2 2 2 2 2 2 2 2 2 2 2 2 2 2 2 2 2 2 2 2 2 2 2 2 2 2 2 2 2 2 2 2 2 2 2 2 2 2 2 2 2 2 2 2 2 2 2 2 2 2 2 2 2 2 2 2 2 2 2 2 2 2 2 2 2 2 2 2 2 2 2 2 2 2 2 2 2 2 2 2 2 2 2 2 2 2 2 2 2 2 2 2 2 2 2 2 2 2 2 2 2 2 2 2 2 2 2 2 2 2 2 2 2 2 2 2 2 2 2 2 2 2 2 2 2 2 2 2 2 2 2 2 2 2 2 2 2 2 2 2 2 2 2 2 2 2 2 2 2 2 2 2 2 2 2 2 2 2 2 2 2 2 2 2 2 2 2 2 2 2 2 2 2 2 2 2 2 2 2 2 2 2 2 2 2 2 2 2 2 2 2 2 2 2 2 2 2 2 2 2 2 2 2 2 2 2 2 2 2 2 2 2 2 2 2 2 2 2 2 2 2 2 2 2 2 2 2 2 2 2 2 2 2 2 2 2 2 2 2 2 2 2 2 2 2 2 2 2 2 2 2 2 2 2 2 2 2 2 2 2 2 2 2 2 2 2 2 2 2 2 2 2 2 2 2 2 2 2 2 2 2 2 2 2 2 2 2 2 2 2 2 2 2 2 2 2 2 2 2 2 2 2 2 2 2 2 2 2 2 2 2 2 2 2 2 2 2 2 2 2 2 2 2 2 2 2 2 2 2 2 2 2 2 2 2 2 2 2 2 2 2 2 2 2 2 2 2 2 2 2 2 2 2 2 2 2 2 2 2 2 2 2 2 2 2 2 2 2 2 2 2 2 2 2 2 2 2 2 2 2 2 2 2 2 2 2 2 2 2 2 2 2 2 2 2 2 2 2 2 2 2 2 2 2 2 2 2 2 2 2 2 2 2 2 2 2 2 2 2 2 2 2 2 2 2 2 2 2 2 2 2 2 2 2 2 2 2 2 2 2 2 2 2 2 2 2 2 2 2 2 2 2 2 2 2 2 2 2 2 2 2 2 2 2 2 2 2 2 2 2 2 2 2 2 2 2 2 2 2 2 2 2 2 2 2 2 2 2 2 2 2 2 2 2 2 2 2 2 2 2 2 2 2 2 2 2 2 2 2 2 2 2 2 2 2 2 2 2 2 2 2 2 2 2 2 2 2 2 2 2 2 2 2 2 2 2 2
1062
3	157 332 1049 
3	290 1048 1049 
3	253 1047 1048 
3	260 1046 1047 
3	324 1045 1046 
3	220 1044 1045 
3	278 1043 1044 
3	232 1042 1043 
3	11 1041 1042 
3	422 1040 1041 
3	37 1039 1040 
3	254 1038 1039 
3	346 1037 1038 
3	160 1036 1037 
3	415 1035 1036 
3	168 1034 1035 
3	136 1033 1034 
3	275 1032 1033 
3	100 1031 1032 
3	358 1030 1031 
3	163 1029 1030 
3	398 1028 1029 
3	252 1027 1028 
3	137 1026 1027 
3	436 1025 1026 
3	156 1024 1025 
3	27 1023 1024 
3	58 1022 1023 
3	282 1021 1022 
3	199 1020 1021 
3	43 1019 1020 
3	33 1018 1019 
3	241 1017 1018 
3	322 1016 1017 
3	374 1015 1016 
3	82 1014 1015 
3	91 1013 1014 
3	62 1012 1013 
3	203 1011 1012 
3	175 1010 1011 
3	429 1009 1010 
3	74 1008 1009 
3	285 1007 1008 
3	22 1006 1007 
3	110 1005 1006 
3	239 1004 1005 
3	122 1003 1004 
3	453 1002 1003 
3	268 1001 1002 
3	266 1000 1001 
3	320 999 1000 
3	84 998 999 
3	469 997 998 
3	315 996 997 
3	354 995 996 
3	183 994 995 
3	113 993 994 
3	144 992 993 
3	326 991 992 
3	61 990 991 
3	196 989 990 
1	989 
3	112 172 988 
3	184 987 988 
3	304 986 987 
3	343 985 986 
3	226 984 985 
3	48 983 984 
3	470 982 983 
3	420 981 982 
3	342 980 981 
3	451 979 980 
3	372 978 979 
3	31 977 978 
3	309 976 977 
3	349 975 976 
3	279 974 975 
1	974 
3	51 365 973 
3	157 972 973 
3	468 971 972 
3	92 970 971 
3	216 969 970 
3	356 968 969 
3	204 967 968 
3	4 966 967 
3	281 965 966 
3	300 964 965 
1	964 
3	360 385 963 
3	106 962 963 
3	36 961 962 
3	140 960 961 
3	230 959 960 
3	53 958 959 
3	333 957 958 
3	114 956 957 
3	93 955 956 
3	340 954 955 
3	408 953 954 
3	227 952 953 
3	449 951 952 
3	305 950 951 
3	13 949 950 
3	162 948 949 
3	173 947 948 
3	166 946 947 
3	132 945 946 
3	447 944 945 
3	80 943 944 
3	249 942 943 
3	448 941 942 
3	111 940 941 
3	434 939 940 
3	389 938 939 
3	362 937 938 
3	269 936 937 
3	158 935 936 
3	439 934 935 
3	458 933 934 
3	77 932 933 
3	243 931 932 
3	361 930 931 
3	420 929 930 
3	297 928 929 
3	394 927 928 
3	16 926 927 
3	261 925 926 
3	222 924 925 
3	251 923 924 
3	15 922 923 
3	47 921 922 
3	26 920 921 
3	57 919 920 
3	309 918 919 
3	400 917 918 
3	231 916 917 
3	289 915 916 
3	165 914 915 
3	38 913 914 
3	263 912 913 
3	239 911 912 
3	327 910 911 
3	45 909 910 
3	147 908 909 
3	376 907 908 
3	293 906 907 
3	138 905 906 
3	198 904 905 
3	102 903 904 
3	229 902 903 
3	78 901 902 
3	128 900 901 
3	460 899 900 
3	2 898 899 
3	467 897 898 
3	24 896 897 
3	337 895 896 
3	466 894 895 
3	396 893 894 
3	256 892 893 
3	431 891 892 
3	438 890 891 
3	348 889 890 
3	390 888 889 
3	421 887 888 
3	413 886 887 
3	108 885 886 
3	163 884 885 
3	39 883 884 
3	202 882 883 
3	406 881 882 
3	119 880 881 
3	201 879 880 
3	383 878 879 
3	29 877 878 
3	30 876 877 
3	75 875 876 
3	397 874 875 
3	405 873 874 
3	307 872 873 
3	404 871 872 
3	148 870 871 
3	60 869 870 
3	347 868 869 
3	213 867 868 
3	152 866 867 
3	115 865 866 
3	69 864 865 
3	236 863 864 
3	443 862 863 
3	311 861 862 
3	107 860 861 
3	71 859 860 
3	312 858 859 
3	265 857 858 
3	435 856 857 
3	101 855 856 
3	129 854 855 
3	284 853 854 
3	86 852 853 
3	407 851 852 
3	151 850 851 
3	321 849 850 
3	302 848 849 
3	12 847 848 
3	402 846 847 
3	10 845 846 
3	257 844 845 
3	454 843 844 
3	50 842 843 
3	70 841 842 
3	432 840 841 
3	189 839 840 
3	472 838 839 
3	299 837 838 
3	338 836 837 
3	197 835 836 
3	187 834 835 
3	419 833 834 
3	430 832 833 
3	363 831 832 
3	238 830 831 
3	18 829 830 
3	66 828 829 
3	149 827 828 
3	65 826 827 
3	367 825 826 
3	181 824 825 
3	116 823 824 
3	178 822 823 
3	164 821 822 
3	308 820 821 
3	52 819 820 
3	378 818 819 
3	44 817 818 
3	176 816 817 
3	392 815 816 
3	127 814 815 
3	172 813 814 
3	9 812 813 
3	219 811 812 
3	188 810 811 
3	336 809 810 
3	87 808 809 
3	41 807 808 
3	411 806 807 
3	94 805 806 
3	56 804 805 
3	428 803 804 
3	395 802 803 
3	49 801 802 
3	233 800 801 
3	388 799 800 
3	153 798 799 
3	27 797 798 
3	248 796 797 
3	255 795 796 
3	410 794 795 
3	369 793 794 
3	7 792 793 
3	292 791 792 
3	63 790 791 
3	465 789 790 
3	417 788 789 
3	141 787 788 
3	425 786 787 
3	452 785 786 
3	382 784 785 
3	455 783 784 
3	191 782 783 
3	1 781 782 
3	55 780 781 
3	370 779 780 
3	250 778 779 
3	264 777 778 
3	391 776 777 
3	242 775 776 
3	88 774 775 
3	223 773 774 
3	280 772 773 
3	185 771 772 
3	323 770 771 
3	349 769 770 
3	364 768 769 
3	161 767 768 
3	73 766 767 
3	193 765 766 
3	186 764 765 
3	98 763 764 
3	123 762 763 
3	351 761 762 
3	352 760 761 
3	76 759 760 
3	109 758 759 
3	190 757 758 
3	154 756 757 
3	179 755 756 
3	459 754 755 
3	146 753 754 
3	366 752 753 
3	258 751 752 
3	14 750 751 
3	225 749 750 
3	217 748 749 
3	291 747 748 
3	401 746 747 
3	379 745 746 
3	3 744 745 
3	210 743 744 
3	314 742 743 
3	21 741 742 
3	67 740 741 
3	48 739 740 
3	461 738 739 
3	276 737 738 
3	218 736 737 
3	54 735 736 
3	130 734 735 
3	170 733 734 
3	145 732 733 
3	375 731 732 
3	174 730 731 
3	96 729 730 
3	182 728 729 
3	328 727 728 
3	234 726 727 
3	368 725 726 
3	194 724 725 
3	20 723 724 
3	211 722 723 
3	355 721 722 
3	456 720 721 
3	169 719 720 
3	433 718 719 
3	226 717 718 
3	446 716 717 
3	273 715 716 
3	124 714 715 
3	427 713 714 
3	31 712 713 
3	180 711 712 
3	5 710 711 
3	437 709 710 
3	35 708 709 
3	42 707 708 
3	445 706 707 
3	267 705 706 
3	59 704 705 
3	373 703 704 
3	167 702 703 
3	6 701 702 
3	135 700 701 
3	8 699 700 
3	304 698 699 
3	244 697 698 
3	387 696 697 
3	97 695 696 
3	306 694 695 
3	150 693 694 
3	462 692 693 
3	34 691 692 
3	310 690 691 
3	416 689 690 
3	283 688 689 
3	0 687 688 
3	294 686 687 
3	90 685 686 
3	99 684 685 
3	344 683 684 
3	330 682 683 
3	440 681 682 
3	64 680 681 
3	450 679 680 
3	298 678 679 
3	212 677 678 
3	103 676 677 
3	245 675 676 
3	121 674 675 
3	441 673 674 
1	673 
3	360 430 672 
3	247 671 672 
3	93 670 671 
3	471 669 670 
3	414 668 669 
3	359 667 668 
3	303 666 667 
3	153 665 666 
3	27 664 665 
3	357 663 664 
3	442 662 663 
3	158 661 662 
3	295 660 661 
3	455 659 660 
3	222 658 659 
3	391 657 658 
3	26 656 657 
3	280 655 656 
3	319 654 655 
3	272 653 654 
3	418 652 653 
3	206 651 652 
3	271 650 651 
3	366 649 650 
3	335 648 649 
3	403 647 648 
3	207 646 647 
3	209 645 646 
3	48 644 645 
3	54 643 644 
3	235 642 643 
3	456 641 642 
3	23 640 641 
3	405 639 640 
3	329 638 639 
3	273 637 638 
3	286 636 637 
3	464 635 636 
3	192 634 635 
3	277 633 634 
3	135 632 633 
3	399 631 632 
3	298 630 631 
3	121 629 630 
1	629 
3	40 442 628 
3	159 627 628 
3	339 626 627 
3	214 625 626 
3	345 624 625 
3	126 623 624 
3	409 622 623 
3	25 621 622 
3	83 620 621 
3	158 619 620 
3	177 618 619 
3	371 617 618 
3	262 616 617 
3	457 615 616 
3	426 614 615 
3	325 613 614 
3	380 612 613 
3	384 611 612 
3	393 610 611 
3	331 609 610 
3	26 608 609 
3	423 607 608 
3	386 606 607 
3	200 605 606 
3	215 604 605 
3	270 603 604 
3	117 602 603 
3	334 601 602 
3	125 600 601 
3	72 599 600 
3	444 598 599 
3	405 597 598 
3	287 596 597 
3	27 595 596 
3	288 594 595 
3	301 593 594 
3	281 592 593 
1	592 
3	27 317 591 
3	26 590 591 
1	590 
3	155 221 589 
3	377 588 589 
3	81 587 588 
3	126 586 587 
3	409 585 586 
3	177 584 585 
3	17 583 584 
3	89 582 583 
3	426 581 582 
3	374 580 581 
3	228 579 580 
3	384 578 579 
3	143 577 578 
3	424 576 577 
3	85 575 576 
3	205 574 575 
3	171 573 574 
3	353 572 573 
3	423 571 572 
3	163 570 571 
3	240 569 570 
3	274 568 569 
3	270 567 568 
3	117 566 567 
3	313 565 566 
3	125 564 565 
3	72 563 564 
3	237 562 563 
3	350 561 562 
3	139 560 561 
3	156 559 560 
3	316 558 559 
3	354 557 558 
3	326 556 557 
1	556 
3	112 379 555 
3	259 554 555 
3	207 553 554 
3	209 552 553 
3	48 551 552 
3	342 550 551 
3	120 549 550 
3	372 548 549 
3	104 547 548 
3	279 546 547 
3	386 545 546 
3	296 544 545 
3	68 543 544 
3	95 542 543 
3	172 541 542 
3	219 540 541 
3	202 539 540 
3	105 538 539 
3	208 537 538 
3	215 536 537 
3	28 535 536 
3	456 534 535 
3	87 533 534 
3	359 532 533 
3	470 531 532 
3	381 530 531 
3	156 529 530 
3	153 528 529 
3	27 527 528 
3	286 526 527 
3	46 525 526 
3	410 524 525 
3	31 523 524 
3	115 522 523 
3	417 521 522 
3	131 520 521 
3	224 519 520 
3	184 518 519 
3	6 517 518 
3	341 516 517 
3	435 515 516 
3	304 514 515 
3	79 513 514 
3	420 512 513 
3	55 511 512 
3	86 510 511 
3	134 509 510 
3	26 508 509 
3	309 507 508 
3	323 506 507 
3	349 505 506 
3	302 504 505 
3	12 503 504 
3	195 502 503 
3	0 501 502 
3	263 500 501 
3	133 499 500 
3	193 498 499 
3	327 497 498 
3	98 496 497 
3	343 495 496 
3	70 494 495 
3	451 493 494 
3	298 492 493 
3	206 491 492 
3	318 490 491 
3	460 489 490 
1	489 
3	142 163 488 
3	32 487 488 
3	192 486 487 
3	412 485 486 
3	246 484 485 
3	19 483 484 
3	118 482 483 
3	463 481 482 
1	481 
3	142 163 480 
3	32 479 480 
3	192 478 479 
3	412 477 478 
3	246 476 477 
3	19 475 476 
3	118 474 475 
3	463 473 474 
1	473 
1	259 
1	290 
1	106 
1	140 
1	53 
1	230 
1	114 
1	93 
1	204 
1	37 
1	340 
1	120 
1	205 
1	168 
1	300 
1	414 
1	227 
1	386 
1	449 
1	162 
1	240 
1	166 
1	208 
1	72 
1	132 
1	287 
1	288 
1	357 
1	434 
1	362 
1	81 
1	25 
1	409 
1	241 
1	439 
1	458 
1	77 
1	361 
1	297 
1	261 
1	47 
1	309 
1	400 
1	231 
1	263 
1	165 
1	239 
1	293 
1	138 
1	198 
1	453 
1	451 
1	128 
1	418 
1	206 
1	183 
1	460 
1	271 
1	467 
1	24 
1	207 
1	337 
1	466 
1	228 
1	431 
1	415 
1	390 
1	279 
1	421 
1	202 
1	406 
1	201 
1	274 
1	28 
1	383 
1	29 
1	30 
1	23 
1	307 
1	404 
1	148 
1	58 
1	46 
1	286 
1	118 
1	213 
1	199 
1	51 
1	40 
1	224 
1	192 
1	443 
1	71 
1	312 
1	265 
1	435 
1	101 
1	284 
1	384 
1	91 
1	407 
1	151 
1	321 
1	12 
1	133 
1	402 
1	10 
1	257 
1	70 
1	189 
1	472 
1	144 
1	113 
1	197 
1	419 
1	112 
1	430 
1	363 
1	214 
1	253 
1	18 
1	126 
1	66 
1	247 
1	149 
1	65 
1	367 
1	83 
1	325 
1	178 
1	11 
1	471 
1	308 
1	4 
1	378 
1	44 
1	95 
1	392 
1	127 
1	172 
1	365 
1	188 
1	336 
1	41 
1	139 
1	94 
1	303 
1	56 
1	395 
1	388 
1	316 
1	27 
1	248 
1	255 
1	410 
1	369 
1	63 
1	43 
1	465 
1	425 
1	382 
1	295 
1	455 
1	370 
1	88 
1	203 
1	349 
1	323 
1	319 
1	73 
1	193 
1	98 
1	270 
1	352 
1	313 
1	343 
1	76 
1	109 
1	154 
1	469 
1	366 
1	146 
1	258 
1	225 
1	217 
1	403 
1	401 
1	159 
1	260 
1	314 
1	21 
1	67 
1	48 
1	461 
1	276 
1	218 
1	54 
1	170 
1	375 
1	174 
1	423 
1	182 
1	105 
1	328 
1	368 
1	20 
1	32 
1	92 
1	235 
1	355 
1	456 
1	169 
1	237 
1	226 
1	446 
1	427 
1	31 
1	5 
1	180 
1	33 
1	437 
1	42 
1	59 
1	373 
1	184 
1	277 
1	167 
1	6 
1	135 
1	8 
1	244 
1	374 
1	97 
1	134 
1	424 
1	306 
1	34 
1	310 
1	416 
1	429 
1	285 
1	294 
1	344 
1	122 
1	356 
1	399 
1	84 
1	318 
1	245 
1	121 
1	360 
1	157 
1	385 
1	345 
1	36 
1	278 
1	371 
1	177 
1	333 
1	342 
1	346 
1	408 
1	296 
1	305 
1	13 
1	173 
1	215 
1	444 
1	80 
1	447 
1	249 
1	448 
1	111 
1	389 
1	377 
1	269 
1	158 
1	79 
1	243 
1	420 
1	82 
1	394 
1	16 
1	222 
1	251 
1	62 
1	15 
1	26 
1	57 
1	289 
1	110 
1	195 
1	38 
1	327 
1	45 
1	147 
1	376 
1	268 
1	102 
1	229 
1	78 
1	354 
1	2 
1	335 
1	463 
1	412 
1	262 
1	396 
1	89 
1	209 
1	256 
1	422 
1	393 
1	438 
1	348 
1	160 
1	104 
1	353 
1	275 
1	413 
1	108 
1	163 
1	39 
1	119 
1	252 
1	125 
1	75 
1	397 
1	381 
1	156 
1	405 
1	329 
1	19 
1	60 
1	347 
1	152 
1	301 
1	115 
1	69 
1	142 
1	131 
1	339 
1	236 
1	311 
1	107 
1	322 
1	129 
1	380 
1	86 
1	175 
1	302 
1	200 
1	117 
1	334 
1	454 
1	50 
1	432 
1	299 
1	326 
1	61 
1	338 
1	196 
1	187 
1	332 
1	238 
1	181 
1	116 
1	426 
1	164 
1	85 
1	171 
1	372 
1	52 
1	176 
1	358 
1	100 
1	9 
1	219 
1	137 
1	87 
1	359 
1	411 
1	436 
1	470 
1	428 
1	49 
1	233 
1	153 
1	7 
1	292 
1	417 
1	442 
1	141 
1	452 
1	17 
1	191 
1	1 
1	55 
1	250 
1	264 
1	391 
1	242 
1	331 
1	280 
1	223 
1	185 
1	74 
1	22 
1	364 
1	161 
1	186 
1	123 
1	272 
1	351 
1	246 
1	350 
1	266 
1	190 
1	320 
1	179 
1	459 
1	14 
1	291 
1	155 
1	379 
1	3 
1	468 
1	324 
1	210 
1	220 
1	216 
1	232 
1	130 
1	145 
1	254 
1	136 
1	96 
1	68 
1	398 
1	234 
1	194 
1	211 
1	433 
1	273 
1	124 
1	282 
1	221 
1	317 
1	35 
1	464 
1	267 
1	445 
1	341 
1	304 
1	457 
1	387 
1	143 
1	150 
1	462 
1	283 
1	0 
1	90 
1	99 
1	330 
1	64 
1	440 
1	450 
1	298 
1	315 
1	103 
1	212 
1	281 
1	441 
0	

8
 1 0 0.89 0.11 0.5 0.5 0.445 0.555
8
 1 0 0 1 0.5 0 0.5 1
8
 1 0 0 1 0.89 0 0.11 1
8
 1 0 0 1 0 0 1 1
8
 1 0 0 1 0.5 0 0.5 1
8
 1 0 0 1 0.5 0 0.5 1
8
 1 0 0 1 0.5 0 0.5 1
8
 1 0 0 1 0.4 0 0.6 1
8
 1 0 0 1 0.1 0 0.9 1
8
 1 0 0 1 0.5 0 0.5 1
8
 1 0 0 1 0.01 0 0.99 1
8
 1 0 0 1 0.5 0 0.5 1
8
 1 0 0 1 0.9 0 0.1 1
8
 1 0 0 1 0.01 0 0.99 1
8
 1 0 0 1 0.1 0 0.9 1
8
 1 0 0 1 0.01 0 0.99 1
8
 1 0 0 1 0.89 0 0.11 1
8
 1 0 0 1 0.5 0 0.5 1
8
 1 0 0 1 0.5 0 0.5 1
8
 1 0 0 1 0.4 0 0.6 1
8
 1 0 0 1 0.63 0 0.37 1
8
 1 0 0 1 0.8 0 0.2 1
8
 1 0 0 1 0.89 0 0.11 1
8
 1 0 0 1 0.89 0 0.11 1
8
 1 0 0 1 0.01 0 0.99 1
8
 1 0 0 1 0.5 0 0.5 1
8
 1 0 0 1 0.95 0 0.05 1
8
 1 0 0 1 0.89 0 0.11 1
8
 1 0 0 1 0.5 0 0.5 1
8
 1 0 0 1 0.5 0 0.5 1
8
 1 0 0 1 0.7 0 0.3 1
8
 1 0 0 1 0.5 0 0.5 1
8
 1 0 0 1 0.5 0 0.5 1
8
 1 0 0 1 0.89 0 0.11 1
8
 1 0 0 1 0.09 0 0.91 1
8
 1 0 0 1 0.09 0 0.91 1
8
 1 0 0 1 0.5 0 0.5 1
8
 1 0 0 1 0.89 0 0.11 1
8
 1 0 0 1 0.9 0 0.1 1
8
 1 0 0 1 0.5 0 0.5 1
8
 1 0 0 1 0.5 0 0.5 1
8
 1 0 0 1 0.89 0 0.11 1
8
 1 0 0 1 0.5 0 0.5 1
8
 1 0 0 1 0.5 0 0.5 1
8
 1 0 0 1 0.89 0 0.11 1
8
 1 0 0 1 0.5 0 0.5 1
8
 1 0 0 1 0.89 0 0.11 1
8
 1 0 0 1 0.5 0 0.5 1
8
 1 0 0 1 0.5 0 0.5 1
8
 1 0 0 1 0.5 0 0.5 1
8
 1 0 0 1 0 0 1 1
8
 1 0 0 1 0.1 0 0.9 1
8
 1 0 0 1 0.5 0 0.5 1
8
 1 0 0 1 0.5 0 0.5 1
8
 1 0 0 1 0.89 0 0.11 1
8
 1 0 0 1 0.89 0 0.11 1
8
 1 0 0 1 0.2 0 0.8 1
8
 1 0 0 1 0.4 0 0.6 1
8
 1 0 0 1 0.4 0 0.6 1
8
 1 0 0 1 0.89 0 0.11 1
8
 1 0 0 1 0.01 0 0.99 1
2
 0.03 1
8
 1 0 0.1 0.9 0.5 0.5 0.05 0.95
8
 1 0 0 1 0.5 0 0.5 1
8
 1 0 0 1 0.5 0 0.5 1
8
 1 0 0 1 0.05 0 0.95 1
8
 1 0 0 1 0.5 0 0.5 1
8
 1 0 0 1 0.5 0 0.5 1
8
 1 0 0 1 0.2 0 0.8 1
8
 1 0 0 1 0.5 0 0.5 1
8
 1 0 0 1 0.5 0 0.5 1
8
 1 0 0 1 0.05 0 0.95 1
8
 1 0 0 1 0.5 0 0.5 1
8
 1 0 0 1 0.3 0 0.7 1
8
 1 0 0 1 0 0 1 1
8
 1 0 0 1 0.5 0 0.5 1
8
 1 0 0 1 0.2 0 0.8 1
2
 0.03 1
8
 1 0 0.7 0.3 0.7 0.3 0.49 0.51
8
 1 0 0 1 0.5 0 0.5 1
8
 1 0 0 1 0.8 0 0.2 1
8
 1 0 0 1 0.6 0 0.4 1
8
 1 0 0 1 0.5 0 0.5 1
8
 1 0 0 1 0.5 0 0.5 1
8
 1 0 0 1 0.89 0 0.11 1
8
 1 0 0 1 0.5 0 0.5 1
8
 1 0 0 1 0.5 0 0.5 1
8
 1 0 0 1 0.01 0 0.99 1
2
 0.03 1
8
 1 0 0.9 0.1 0.9 0.1 0.81 0.19
8
 1 0 0 1 0.3 0 0.7 1
8
 1 0 0 1 0.5 0 0.5 1
8
 1 0 0 1 0.1 0 0.9 1
8
 1 0 0 1 0.9 0 0.1 1
8
 1 0 0 1 0.2 0 0.8 1
8
 1 0 0 1 0.9 0 0.1 1
8
 1 0 0 1 0.9 0 0.1 1
8
 1 0 0 1 0.7 0 0.3 1
8
 1 0 0 1 0.5 0 0.5 1
8
 1 0 0 1 0.5 0 0.5 1
8
 1 0 0 1 0.9 0 0.1 1
8
 1 0 0 1 0.9 0 0.1 1
8
 1 0 0 1 0.5 0 0.5 1
8
 1 0 0 1 0.9 0 0.1 1
8
 1 0 0 1 0.72 0 0.28 1
8
 1 0 0 1 0.9 0 0.1 1
8
 1 0 0 1 0.9 0 0.1 1
8
 1 0 0 1 0.5 0 0.5 1
8
 1 0 0 1 0.5 0 0.5 1
8
 1 0 0 1 0.8 0 0.2 1
8
 1 0 0 1 0.9 0 0.1 1
8
 1 0 0 1 0.3 0 0.7 1
8
 1 0 0 1 0.8 0 0.2 1
8
 1 0 0 1 0.2 0 0.8 1
8
 1 0 0 1 0.75 0 0.25 1
8
 1 0 0 1 0.9 0 0.1 1
8
 1 0 0 1 0.7 0 0.3 1
8
 1 0 0 1 0.3 0 0.7 1
8
 1 0 0 1 0.8 0 0.2 1
8
 1 0 0 1 0.9 0 0.1 1
8
 1 0 0 1 0.8 0 0.2 1
8
 1 0 0 1 0.1 0 0.9 1
8
 1 0 0 1 0.9 0 0.1 1
8
 1 0 0 1 0.1 0 0.9 1
8
 1 0 0 1 0.9 0 0.1 1
8
 1 0 0 1 0.9 0 0.1 1
8
 1 0 0 1 0.5 0 0.5 1
8
 1 0 0 1 0.9 0 0.1 1
8
 1 0 0 1 0.9 0 0.1 1
8
 1 0 0 1 0.2 0 0.8 1
8
 1 0 0 1 0.7 0 0.3 1
8
 1 0 0 1 0.3 0 0.7 1
8
 1 0 0 1 0.4 0 0.6 1
8
 1 0 0 1 0.9 0 0.1 1
8
 1 0 0 1 0.01 0 0.99 1
8
 1 0 0 1 0.9 0 0.1 1
8
 1 0 0 1 0.5 0 0.5 1
8
 1 0 0 1 0.5 0 0.5 1
8
 1 0 0 1 0.85 0 0.15 1
8
 1 0 0 1 0.9 0 0.1 1
8
 1 0 0 1 0.09 0 0.91 1
8
 1 0 0 1 0.5 0 0.5 1
8
 1 0 0 1 0.5 0 0.5 1
8
 1 0 0 1 0.9 0 0.1 1
8
 1 0 0 1 0.5 0 0.5 1
8
 1 0 0 1 0.9 0 0.1 1
8
 1 0 0 1 0.1 0 0.9 1
8
 1 0 0 1 0.9 0 0.1 1
8
 1 0 0 1 0.9 0 0.1 1
8
 1 0 0 1 0.5 0 0.5 1
8
 1 0 0 1 0.5 0 0.5 1
8
 1 0 0 1 0.5 0 0.5 1
8
 1 0 0 1 0.9 0 0.1 1
8
 1 0 0 1 0.5 0 0.5 1
8
 1 0 0 1 0.5 0 0.5 1
8
 1 0 0 1 0.9 0 0.1 1
8
 1 0 0 1 0.5 0 0.5 1
8
 1 0 0 1 0.9 0 0.1 1
8
 1 0 0 1 0.3 0 0.7 1
8
 1 0 0 1 0.9 0 0.1 1
8
 1 0 0 1 0.5 0 0.5 1
8
 1 0 0 1 0.9 0 0.1 1
8
 1 0 0 1 0.1 0 0.9 1
8
 1 0 0 1 0.5 0 0.5 1
8
 1 0 0 1 0.9 0 0.1 1
8
 1 0 0 1 0.2 0 0.8 1
8
 1 0 0 1 0.9 0 0.1 1
8
 1 0 0 1 0.9 0 0.1 1
8
 1 0 0 1 0.6 0 0.4 1
8
 1 0 0 1 0.9 0 0.1 1
8
 1 0 0 1 0.9 0 0.1 1
8
 1 0 0 1 0 0 1 1
8
 1 0 0 1 0.05 0 0.95 1
8
 1 0 0 1 0.5 0 0.5 1
8
 1 0 0 1 0.9 0 0.1 1
8
 1 0 0 1 0.1 0 0.9 1
8
 1 0 0 1 0.9 0 0.1 1
8
 1 0 0 1 0.9 0 0.1 1
8
 1 0 0 1 0.2 0 0.8 1
8
 1 0 0 1 0.9 0 0.1 1
8
 1 0 0 1 0.9 0 0.1 1
8
 1 0 0 1 0.5 0 0.5 1
8
 1 0 0 1 0.9 0 0.1 1
8
 1 0 0 1 0.1 0 0.9 1
8
 1 0 0 1 0.1 0 0.9 1
8
 1 0 0 1 0.9 0 0.1 1
8
 1 0 0 1 0.5 0 0.5 1
8
 1 0 0 1 0.5 0 0.5 1
8
 1 0 0 1 0.9 0 0.1 1
8
 1 0 0 1 0.4 0 0.6 1
8
 1 0 0 1 0.7 0 0.3 1
8
 1 0 0 1 0.5 0 0.5 1
8
 1 0 0 1 0.5 0 0.5 1
8
 1 0 0 1 0.9 0 0.1 1
8
 1 0 0 1 0.1 0 0.9 1
8
 1 0 0 1 0.5 0 0.5 1
8
 1 0 0 1 0.1 0 0.9 1
8
 1 0 0 1 0.9 0 0.1 1
8
 1 0 0 1 0.9 0 0.1 1
8
 1 0 0 1 0.5 0 0.5 1
8
 1 0 0 1 0.1 0 0.9 1
8
 1 0 0 1 0.9 0 0.1 1
8
 1 0 0 1 0.9 0 0.1 1
8
 1 0 0 1 0.9 0 0.1 1
8
 1 0 0 1 0.5 0 0.5 1
8
 1 0 0 1 0.5 0 0.5 1
8
 1 0 0 1 0.89 0 0.11 1
8
 1 0 0 1 0.9 0 0.1 1
8
 1 0 0 1 0.5 0 0.5 1
8
 1 0 0 1 0.47 0 0.53 1
8
 1 0 0 1 0.7 0 0.3 1
8
 1 0 0 1 0.5 0 0.5 1
8
 1 0 0 1 0.1 0 0.9 1
8
 1 0 0 1 0.7 0 0.3 1
8
 1 0 0 1 0.9 0 0.1 1
8
 1 0 0 1 0.1 0 0.9 1
8
 1 0 0 1 0.9 0 0.1 1
8
 1 0 0 1 0.9 0 0.1 1
8
 1 0 0 1 0.89 0 0.11 1
8
 1 0 0 1 0.5 0 0.5 1
8
 1 0 0 1 0.8 0 0.2 1
8
 1 0 0 1 0.9 0 0.1 1
8
 1 0 0 1 0.9 0 0.1 1
8
 1 0 0 1 0.2 0 0.8 1
8
 1 0 0 1 0.9 0 0.1 1
8
 1 0 0 1 0.19 0 0.81 1
8
 1 0 0 1 0.7 0 0.3 1
8
 1 0 0 1 0.89 0 0.11 1
8
 1 0 0 1 0.9 0 0.1 1
8
 1 0 0 1 0.8 0 0.2 1
8
 1 0 0 1 0.9 0 0.1 1
8
 1 0 0 1 0.9 0 0.1 1
8
 1 0 0 1 0.3 0 0.7 1
8
 1 0 0 1 0.5 0 0.5 1
8
 1 0 0 1 0.9 0 0.1 1
8
 1 0 0 1 0.3 0 0.7 1
8
 1 0 0 1 0.5 0 0.5 1
8
 1 0 0 1 0.05 0 0.95 1
8
 1 0 0 1 0.9 0 0.1 1
8
 1 0 0 1 0.1 0 0.9 1
8
 1 0 0 1 0.2 0 0.8 1
8
 1 0 0 1 0.8 0 0.2 1
8
 1 0 0 1 0.9 0 0.1 1
8
 1 0 0 1 0.1 0 0.9 1
8
 1 0 0 1 0.01 0 0.99 1
8
 1 0 0 1 0.8 0 0.2 1
8
 1 0 0 1 0.5 0 0.5 1
8
 1 0 0 1 0.3 0 0.7 1
8
 1 0 0 1 0.9 0 0.1 1
8
 1 0 0 1 0.3 0 0.7 1
8
 1 0 0 1 0.5 0 0.5 1
8
 1 0 0 1 0.9 0 0.1 1
8
 1 0 0 1 0.4 0 0.6 1
8
 1 0 0 1 0.9 0 0.1 1
8
 1 0 0 1 0.09 0 0.91 1
8
 1 0 0 1 0.95 0 0.05 1
8
 1 0 0 1 0.3 0 0.7 1
8
 1 0 0 1 0.35 0 0.65 1
8
 1 0 0 1 0.5 0 0.5 1
8
 1 0 0 1 0.9 0 0.1 1
8
 1 0 0 1 0.5 0 0.5 1
8
 1 0 0 1 0.4 0 0.6 1
8
 1 0 0 1 0.8 0 0.2 1
8
 1 0 0 1 0.3 0 0.7 1
8
 1 0 0 1 0.5 0 0.5 1
8
 1 0 0 1 0.5 0 0.5 1
8
 1 0 0 1 0.9 0 0.1 1
8
 1 0 0 1 0.6 0 0.4 1
8
 1 0 0 1 0.9 0 0.1 1
8
 1 0 0 1 0.9 0 0.1 1
8
 1 0 0 1 0.9 0 0.1 1
8
 1 0 0 1 0.9 0 0.1 1
8
 1 0 0 1 0.9 0 0.1 1
8
 1 0 0 1 0.9 0 0.1 1
8
 1 0 0 1 0.01 0 0.99 1
8
 1 0 0 1 0.9 0 0.1 1
8
 1 0 0 1 0.2 0 0.8 1
8
 1 0 0 1 0.7 0 0.3 1
8
 1 0 0 1 0.7 0 0.3 1
8
 1 0 0 1 0.9 0 0.1 1
8
 1 0 0 1 0.5 0 0.5 1
8
 1 0 0 1 0.9 0 0.1 1
8
 1 0 0 1 0.98 0 0.02 1
8
 1 0 0 1 0.5 0 0.5 1
8
 1 0 0 1 0.5 0 0.5 1
8
 1 0 0 1 0.7 0 0.3 1
8
 1 0 0 1 0.5 0 0.5 1
8
 1 0 0 1 0.8 0 0.2 1
8
 1 0 0 1 0.9 0 0.1 1
8
 1 0 0 1 0.9 0 0.1 1
8
 1 0 0 1 0.4 0 0.6 1
8
 1 0 0 1 0.9 0 0.1 1
8
 1 0 0 1 0.5 0 0.5 1
8
 1 0 0 1 0.2 0 0.8 1
8
 1 0 0 1 0.9 0 0.1 1
8
 1 0 0 1 0.9 0 0.1 1
8
 1 0 0 1 0.5 0 0.5 1
8
 1 0 0 1 0.9 0 0.1 1
8
 1 0 0 1 0.9 0 0.1 1
8
 1 0 0 1 0.9 0 0.1 1
8
 1 0 0 1 0.67 0 0.33 1
8
 1 0 0 1 0.5 0 0.5 1
8
 1 0 0 1 0.89 0 0.11 1
8
 1 0 0 1 0.3 0 0.7 1
8
 1 0 0 1 0.3 0 0.7 1
8
 1 0 0 1 0.9 0 0.1 1
8
 1 0 0 1 0.9 0 0.1 1
8
 1 0 0 1 0.1 0 0.9 1
8
 1 0 0 1 0.9 0 0.1 1
8
 1 0 0 1 0.34 0 0.66 1
8
 1 0 0 1 0.9 0 0.1 1
8
 1 0 0 1 0.9 0 0.1 1
8
 1 0 0 1 0.9 0 0.1 1
8
 1 0 0 1 0.5 0 0.5 1
8
 1 0 0 1 0.9 0 0.1 1
8
 1 0 0 1 0.9 0 0.1 1
8
 1 0 0 1 0.5 0 0.5 1
8
 1 0 0 1 0.5 0 0.5 1
8
 1 0 0 1 0.9 0 0.1 1
8
 1 0 0 1 0.9 0 0.1 1
8
 1 0 0 1 0.9 0 0.1 1
8
 1 0 0 1 0.7 0 0.3 1
8
 1 0 0 1 0.5 0 0.5 1
8
 1 0 0 1 0.9 0 0.1 1
8
 1 0 0 1 0.72 0 0.28 1
8
 1 0 0 1 0.72 0 0.28 1
8
 1 0 0 1 0.9 0 0.1 1
8
 1 0 0 1 0.9 0 0.1 1
8
 1 0 0 1 0.9 0 0.1 1
8
 1 0 0 1 0.25 0 0.75 1
8
 1 0 0 1 0.5 0 0.5 1
8
 1 0 0 1 0.7 0 0.3 1
8
 1 0 0 1 0.9 0 0.1 1
8
 1 0 0 1 0.9 0 0.1 1
8
 1 0 0 1 0.4 0 0.6 1
8
 1 0 0 1 0.9 0 0.1 1
8
 1 0 0 1 0.5 0 0.5 1
8
 1 0 0 1 0.9 0 0.1 1
8
 1 0 0 1 0.2 0 0.8 1
8
 1 0 0 1 0.8 0 0.2 1
8
 1 0 0 1 0.8 0 0.2 1
8
 1 0 0 1 0.9 0 0.1 1
8
 1 0 0 1 0.5 0 0.5 1
8
 1 0 0 1 0.9 0 0.1 1
8
 1 0 0 1 0.5 0 0.5 1
8
 1 0 0 1 0.9 0 0.1 1
8
 1 0 0 1 0.9 0 0.1 1
8
 1 0 0 1 0.9 0 0.1 1
8
 1 0 0 1 0.9 0 0.1 1
8
 1 0 0 1 0.9 0 0.1 1
8
 1 0 0 1 0.1 0 0.9 1
8
 1 0 0 1 0.5 0 0.5 1
8
 1 0 0 1 0.9 0 0.1 1
8
 1 0 0 1 0.9 0 0.1 1
8
 1 0 0 1 0.5 0 0.5 1
8
 1 0 0 1 0.7 0 0.3 1
8
 1 0 0 1 0.9 0 0.1 1
8
 1 0 0 1 0.9 0 0.1 1
8
 1 0 0 1 0.7 0 0.3 1
8
 1 0 0 1 0.9 0 0.1 1
8
 1 0 0 1 0.3 0 0.7 1
8
 1 0 0 1 0.3 0 0.7 1
8
 1 0 0 1 0.3 0 0.7 1
8
 1 0 0 1 0.9 0 0.1 1
8
 1 0 0 1 0.9 0 0.1 1
8
 1 0 0 1 0.3 0 0.7 1
8
 1 0 0 1 0.5 0 0.5 1
8
 1 0 0 1 0.1 0 0.9 1
8
 1 0 0 1 0.1 0 0.9 1
8
 1 0 0 1 0.3 0 0.7 1
8
 1 0 0 1 0.9 0 0.1 1
8
 1 0 0 1 0.2 0 0.8 1
8
 1 0 0 1 0.9 0 0.1 1
8
 1 0 0 1 0.9 0 0.1 1
8
 1 0 0 1 0.3 0 0.7 1
8
 1 0 0 1 0.5 0 0.5 1
8
 1 0 0 1 0.9 0 0.1 1
8
 1 0 0 1 0.8 0 0.2 1
8
 1 0 0 1 0.9 0 0.1 1
8
 1 0 0 1 0.6 0 0.4 1
2
 0.03 1
8
 1 0 0.9 0.1 0.9 0.1 0.81 0.19
8
 1 0 0 1 0.3 0 0.7 1
8
 1 0 0 1 0.9 0 0.1 1
8
 1 0 0 1 0.3 0 0.7 1
8
 1 0 0 1 0.3 0 0.7 1
8
 1 0 0 1 0.5 0 0.5 1
8
 1 0 0 1 0.3 0 0.7 1
8
 1 0 0 1 0.5 0 0.5 1
8
 1 0 0 1 0.9 0 0.1 1
8
 1 0 0 1 0.3 0 0.7 1
8
 1 0 0 1 0.5 0 0.5 1
8
 1 0 0 1 0.9 0 0.1 1
8
 1 0 0 1 0.5 0 0.5 1
8
 1 0 0 1 0.7 0 0.3 1
8
 1 0 0 1 0.9 0 0.1 1
8
 1 0 0 1 0.9 0 0.1 1
8
 1 0 0 1 0.4 0 0.6 1
8
 1 0 0 1 0.9 0 0.1 1
8
 1 0 0 1 0.9 0 0.1 1
8
 1 0 0 1 0.75 0 0.25 1
8
 1 0 0 1 0.3 0 0.7 1
8
 1 0 0 1 0.9 0 0.1 1
8
 1 0 0 1 0.5 0 0.5 1
8
 1 0 0 1 0.9 0 0.1 1
8
 1 0 0 1 0.3 0 0.7 1
8
 1 0 0 1 0.5 0 0.5 1
8
 1 0 0 1 0.9 0 0.1 1
8
 1 0 0 1 0.9 0 0.1 1
8
 1 0 0 1 0.9 0 0.1 1
8
 1 0 0 1 0.9 0 0.1 1
8
 1 0 0 1 0.3 0 0.7 1
8
 1 0 0 1 0.9 0 0.1 1
8
 1 0 0 1 0.3 0 0.7 1
8
 1 0 0 1 0.5 0 0.5 1
8
 1 0 0 1 0.1 0 0.9 1
8
 1 0 0 1 0.9 0 0.1 1
8
 1 0 0 1 0.89 0 0.11 1
8
 1 0 0 1 0.9 0 0.1 1
8
 1 0 0 1 0.89 0 0.11 1
8
 1 0 0 1 0.5 0 0.5 1
8
 1 0 0 1 0.09 0 0.91 1
8
 1 0 0 1 0.3 0 0.7 1
8
 1 0 0 1 0.4 0 0.6 1
8
 1 0 0 1 0.9 0 0.1 1
2
 0.03 1
8
 1 0 0.6 0.4 0.5 0.5 0.3 0.7
8
 1 0 0 1 0.6 0 0.4 1
8
 1 0 0 1 0.89 0 0.11 1
8
 1 0 0 1 0.5 0 0.5 1
8
 1 0 0 1 0.5 0 0.5 1
8
 1 0 0 1 0.4 0 0.6 1
8
 1 0 0 1 0.5 0 0.5 1
8
 1 0 0 1 0.2 0 0.8 1
8
 1 0 0 1 0.5 0 0.5 1
8
 1 0 0 1 0.01 0 0.99 1
8
 1 0 0 1 0.4 0 0.6 1
8
 1 0 0 1 0.05 0 0.95 1
8
 1 0 0 1 0.1 0 0.9 1
8
 1 0 0 1 0.2 0 0.8 1
8
 1 0 0 1 0.4 0 0.6 1
8
 1 0 0 1 0.89 0 0.11 1
8
 1 0 0 1 0.8 0 0.2 1
8
 1 0 0 1 0.4 0 0.6 1
8
 1 0 0 1 0.6 0 0.4 1
8
 1 0 0 1 0.5 0 0.5 1
8
 1 0 0 1 0.4 0 0.6 1
8
 1 0 0 1 0.4 0 0.6 1
8
 1 0 0 1 0.01 0 0.99 1
8
 1 0 0 1 0.5 0 0.5 1
8
 1 0 0 1 0 0 1 1
8
 1 0 0 1 0.5 0 0.5 1
8
 1 0 0 1 0.4 0 0.6 1
8
 1 0 0 1 0.5 0 0.5 1
8
 1 0 0 1 0.4 0 0.6 1
8
 1 0 0 1 0.4 0 0.6 1
8
 1 0 0 1 0.5 0 0.5 1
8
 1 0 0 1 0.5 0 0.5 1
8
 1 0 0 1 0.05 0 0.95 1
8
 1 0 0 1 0.1 0 0.9 1
8
 1 0 0 1 0.1 0 0.9 1
8
 1 0 0 1 0.05 0 0.95 1
8
 1 0 0 1 0.01 0 0.99 1
2
 0.03 1
8
 1 0 0.6 0.4 0.01 0.99 0.006 0.994
8
 1 0 0 1 0.2 0 0.8 1
2
 0.03 1
8
 1 0 0.05 0.95 0 1 0 1
8
 1 0 0 1 0.01 0 0.99 1
8
 1 0 0 1 0.01 0 0.99 1
8
 1 0 0 1 0.4 0 0.6 1
8
 1 0 0 1 0.5 0 0.5 1
8
 1 0 0 1 0.05 0 0.95 1
8
 1 0 0 1 0 0 1 1
8
 1 0 0 1 0.45 0 0.55 1
8
 1 0 0 1 0.05 0 0.95 1
8
 1 0 0 1 0.05 0 0.95 1
8
 1 0 0 1 0.01 0 0.99 1
8
 1 0 0 1 0.4 0 0.6 1
8
 1 0 0 1 0 0 1 1
8
 1 0 0 1 0.05 0 0.95 1
8
 1 0 0 1 0.9 0 0.1 1
8
 1 0 0 1 0.5 0 0.5 1
8
 1 0 0 1 0.05 0 0.95 1
8
 1 0 0 1 0.4 0 0.6 1
8
 1 0 0 1 0.4 0 0.6 1
8
 1 0 0 1 0.66 0 0.34 1
8
 1 0 0 1 0.05 0 0.95 1
8
 1 0 0 1 0 0 1 1
8
 1 0 0 1 0.05 0 0.95 1
8
 1 0 0 1 0.4 0 0.6 1
8
 1 0 0 1 0.05 0 0.95 1
8
 1 0 0 1 0.6 0 0.4 1
8
 1 0 0 1 0.05 0 0.95 1
8
 1 0 0 1 0.05 0 0.95 1
8
 1 0 0 1 0.5 0 0.5 1
8
 1 0 0 1 0.5 0 0.5 1
8
 1 0 0 1 0.5 0 0.5 1
8
 1 0 0 1 0.2 0 0.8 1
8
 1 0 0 1 0.05 0 0.95 1
8
 1 0 0 1 0.5 0 0.5 1
2
 0.03 1
8
 1 0 0.5 0.5 0.5 0.5 0.25 0.75
8
 1 0 0 1 0.1 0 0.9 1
8
 1 0 0 1 0.1 0 0.9 1
8
 1 0 0 1 0.1 0 0.9 1
8
 1 0 0 1 0.09 0 0.91 1
8
 1 0 0 1 0.5 0 0.5 1
8
 1 0 0 1 0.95 0 0.05 1
8
 1 0 0 1 0.5 0 0.5 1
8
 1 0 0 1 0.19 0 0.81 1
8
 1 0 0 1 0.01 0 0.99 1
8
 1 0 0 1 0.09 0 0.91 1
8
 1 0 0 1 0.5 0 0.5 1
8
 1 0 0 1 0.01 0 0.99 1
8
 1 0 0 1 0.1 0 0.9 1
8
 1 0 0 1 0.05 0 0.95 1
8
 1 0 0 1 0.1 0 0.9 1
8
 1 0 0 1 0.19 0 0.81 1
8
 1 0 0 1 0.19 0 0.81 1
8
 1 0 0 1 0.1 0 0.9 1
8
 1 0 0 1 0.05 0 0.95 1
8
 1 0 0 1 0.5 0 0.5 1
8
 1 0 0 1 0.05 0 0.95 1
8
 1 0 0 1 0.01 0 0.99 1
8
 1 0 0 1 0.5 0 0.5 1
8
 1 0 0 1 0.2 0 0.8 1
8
 1 0 0 1 0.1 0 0.9 1
8
 1 0 0 1 0.5 0 0.5 1
8
 1 0 0 1 0.5 0 0.5 1
8
 1 0 0 1 0.95 0 0.05 1
8
 1 0 0 1 0.89 0 0.11 1
8
 1 0 0 1 0.5 0 0.5 1
8
 1 0 0 1 0.5 0 0.5 1
8
 1 0 0 1 0.01 0 0.99 1
8
 1 0 0 1 0.5 0 0.5 1
8
 1 0 0 1 0.2 0 0.8 1
8
 1 0 0 1 0.5 0 0.5 1
8
 1 0 0 1 0.5 0 0.5 1
8
 1 0 0 1 0.09 0 0.91 1
8
 1 0 0 1 0.19 0 0.81 1
8
 1 0 0 1 0.5 0 0.5 1
8
 1 0 0 1 0.09 0 0.91 1
8
 1 0 0 1 0.5 0 0.5 1
8
 1 0 0 1 0.59 0 0.41 1
8
 1 0 0 1 0.5 0 0.5 1
8
 1 0 0 1 0.1 0 0.9 1
8
 1 0 0 1 0.1 0 0.9 1
8
 1 0 0 1 0.01 0 0.99 1
8
 1 0 0 1 0.3 0 0.7 1
8
 1 0 0 1 0 0 1 1
8
 1 0 0 1 0.1 0 0.9 1
8
 1 0 0 1 0.5 0 0.5 1
8
 1 0 0 1 0.5 0 0.5 1
8
 1 0 0 1 0.19 0 0.81 1
8
 1 0 0 1 0.5 0 0.5 1
8
 1 0 0 1 0.19 0 0.81 1
8
 1 0 0 1 0.09 0 0.91 1
8
 1 0 0 1 0.1 0 0.9 1
8
 1 0 0 1 0.5 0 0.5 1
8
 1 0 0 1 0.5 0 0.5 1
8
 1 0 0 1 0.59 0 0.41 1
8
 1 0 0 1 0.05 0 0.95 1
8
 1 0 0 1 0.19 0 0.81 1
8
 1 0 0 1 0.05 0 0.95 1
8
 1 0 0 1 0.2 0 0.8 1
8
 1 0 0 1 0.1 0 0.9 1
8
 1 0 0 1 0.5 0 0.5 1
8
 1 0 0 1 0.5 0 0.5 1
2
 0.03 1
8
 1 0 0.57 0.43 0.5 0.5 0.285 0.715
8
 1 0 0 1 0.5 0 0.5 1
8
 1 0 0 1 0.5 0 0.5 1
8
 1 0 0 1 0.5 0 0.5 1
8
 1 0 0 1 0.5 0 0.5 1
8
 1 0 0 1 0.5 0 0.5 1
8
 1 0 0 1 0.4 0 0.6 1
8
 1 0 0 1 0.01 0 0.99 1
2
 0.03 1
8
 1 0 0.57 0.43 0.5 0.5 0.285 0.715
8
 1 0 0 1 0.5 0 0.5 1
8
 1 0 0 1 0.5 0 0.5 1
8
 1 0 0 1 0.5 0 0.5 1
8
 1 0 0 1 0.5 0 0.5 1
8
 1 0 0 1 0.5 0 0.5 1
8
 1 0 0 1 0.4 0 0.6 1
8
 1 0 0 1 0.01 0 0.99 1
2
 0.03 1
2
 0.99968 0.00032
2
 0.9996 0.0004
2
 1 1.8e-07
2
 0.999995 5e-06
2
 1 8e-08
2
 1 9e-08
2
 0.99999 1e-05
2
 0.99975 0.00025
2
 0.9999 0.0001
2
 0.99999 1e-05
2
 0.999993 7e-06
2
 0.9998 0.0002
2
 0.999999 1e-06
2
 0.99998 2e-05
2
 0.9995 0.0005
2
 0.9999 0.0001
2
 0.99995 5e-05
2
 0.9998 0.0002
2
 1 4e-08
2
 0.999999 1.4e-06
2
 0.9998 0.0002
2
 0.999998 2e-06
2
 0.9999 0.0001
2
 0.9999 0.0001
2
 0.999977 2.342e-05
2
 0.99995 5e-05
2
 0.99996 4e-05
2
 0.9999 0.0001
2
 1 1e-08
2
 0.99998 2.042e-05
2
 0.99999 1e-05
2
 0.9999 0.0001
2
 0.99974 0.00026
2
 0.99991 9e-05
2
 1 1e-08
2
 0.99988 0.00012
2
 0.9993 0.0007
2
 1 1.1e-07
2
 0.99809 0.00191
2
 0.999996 3.64e-06
2
 0.999999 1.448e-06
2
 0.9996 0.0004
2
 0.99999 1e-05
2
 0.999999 1.26e-06
2
 0.99996 4e-05
2
 0.99998 2e-05
2
 0.9999 0.0001
2
 0.9995 0.0005
2
 1 1e-08
2
 0.9992 0.0008
2
 0.99992 8e-05
2
 0.9999 0.0001
2
 1 1e-08
2
 0.9991 0.0009
2
 0.99992 8e-05
2
 0.9999 0.0001
2
 0.9995 0.0005
2
 0.9999 0.0001
2
 0.99989 0.00011
2
 0.99991 9e-05
2
 0.9996 0.0004
2
 0.999957 4.295e-05
2
 1 6e-08
2
 0.99858 0.00142
2
 1 1.1e-07
2
 0.9999 0.0001
2
 0.999999 1e-06
2
 0.99995 5e-05
2
 0.9999 0.0001
2
 0.99991 9e-05
2
 0.9998 0.0002
2
 1 8e-08
2
 0.998 0.002
2
 0.99999 1e-05
2
 0.99986 0.00014
2
 0.99982 0.00018
2
 1 4e-08
2
 0.9997 0.0003
2
 0.99995 5e-05
2
 0.99995 5e-05
2
 0.999999 6.9e-07
2
 0.9999 0.0001
2
 0.9991 0.0009
2
 0.99993 7e-05
2
 0.9998 0.0002
2
 0.99984 0.00016
2
 0.99996 4e-05
2
 0.99998 2e-05
2
 0.99998 2e-05
2
 0.9999 0.0001
2
 0.9999 0.0001
2
 0.99999 1e-05
2
 0.999989 1.08e-05
2
 0.99995 5e-05
2
 0.9975 0.0025
2
 0.9995 0.0005
2
 0.99994 6e-05
2
 0.9998 0.0002
2
 0.9999 0.0001
2
 0.9999 0.0001
2
 0.99991 9e-05
2
 0.99989 0.00011
2
 0.999999 1e-06
2
 0.9999 0.0001
2
 0.9999 0.0001
2
 0.9999 0.0001
2
 0.99991 9e-05
2
 1 3.6e-07
2
 0.999 0.001
2
 1 1e-08
2
 1 4e-08
2
 0.99996 4e-05
2
 0.9999 0.0001
2
 0.99989 0.00011
2
 0.999999 6.6e-07
2
 0.9999 0.0001
2
 0.999977 2.291e-05
2
 1 1.7e-07
2
 0.99994 6e-05
2
 0.9999 0.0001
2
 0.999999 1.2e-06
2
 0.996 0.004
2
 0.999 0.001
2
 0.9991 0.0009
2
 0.999999 1e-06
2
 0.999981 1.92e-05
2
 0.9999 0.0001
2
 0.99989 0.00011
2
 0.9999 0.0001
2
 0.999959 4.084e-05
2
 0.9995 0.0005
2
 1 2e-07
2
 0.995 0.005
2
 0.9999 0.0001
2
 0.999999 1e-06
2
 0.99998 2.003e-05
2
 0.9999 0.0001
2
 0.999998 2e-06
2
 0.99989 0.00011
2
 0.9997 0.0003
2
 0.9995 0.0005
2
 1 1e-08
2
 0.9995 0.0005
2
 0.9998 0.0002
2
 0.997 0.003
2
 1 2.8e-07
2
 0.999 0.001
2
 0.999991 8.59e-06
2
 0.99995 5e-05
2
 1 1e-08
2
 0.99992 8e-05
2
 0.997 0.003
2
 0.999999 1e-06
2
 0.99999 1e-05
2
 0.9999 0.0001
2
 0.9991 0.0009
2
 1 1e-08
2
 0.99999 1e-05
2
 0.9999 0.0001
2
 0.999999 1e-06
2
 0.999995 5.23e-06
2
 0.9999 0.0001
2
 1 1.6e-07
2
 0.99962 0.00038
2
 0.99998 2e-05
2
 0.999 0.001
2
 0.9999 0.0001
2
 0.99989 0.00011
2
 0.999969 3.12e-05
2
 0.999999 5.9e-07
2
 0.999999 1e-06
2
 0.9992 0.0008
2
 0.99975 0.00025
2
 0.999993 6.77e-06
2
 0.9999 0.0001
2
 0.9999 0.0001
2
 1 5e-08
2
 0.999982 1.82e-05
2
 0.9995 0.0005
2
 0.9999 0.0001
2
 0.99999 1e-05
2
 0.9995 0.0005
2
 1 1.4e-07
2
 0.9998 0.0002
2
 0.999953 4.733e-05
2
 0.99998 2e-05
2
 1 1e-08
2
 0.99999 1e-05
2
 0.9999 0.0001
2
 0.99994 6e-05
2
 1 1e-08
2
 0.99989 0.00011
2
 0.99991 9e-05
2
 0.999997 3.18e-06
2
 0.99987 0.00013
2
 1 1e-08
2
 0.9999 0.0001
2
 1 9e-08
2
 1 1.1e-07
2
 0.99997 3e-05
2
 0.9995 0.0005
2
 1 2.9e-07
2
 0.9999 0.0001
2
 1 6e-08
2
 1 2e-08
2
 0.999992 7.67e-06
2
 0.99994 6e-05
2
 0.9998 0.0002
2
 0.998 0.002
2
 0.999994 6e-06
2
 0.9998 0.0002
2
 0.99989 0.00011
2
 0.9994 0.0006
2
 0.999999 1e-06
2
 0.999555 0.00044466
2
 0.999999 1e-06
2
 0.99995 5e-05
2
 0.999999 1e-06
2
 0.999998 2.143e-06
2
 0.9997 0.0003
2
 1 5e-07
2
 1 1e-08
2
 1 1e-08
2
 0.999985 1.48e-05
2
 0.9997 0.0003
2
 0.9998 0.0002
2
 0.9999 0.0001
2
 0.999999 1e-06
2
 0.99995 5e-05
2
 1 1e-08
2
 1 1e-08
2
 0.9999 0.0001
2
 1 1.1e-07
2
 0.9999 0.0001
2
 0.9999 0.0001
2
 1 1e-07
2
 1 1e-07
2
 0.99997 3e-05
2
 0.9997 0.0003
2
 0.9999 0.0001
2
 0.9999 0.0001
2
 0.999585 0.000415
2
 0.999991 9.42e-06
2
 0.9999 0.0001
2
 0.9999 0.0001
2
 0.9995 0.0005
2
 0.999999 1e-06
2
 0.9999 0.0001
2
 0.9997 0.0003
2
 0.9999 0.0001
2
 0.9995 0.0005
2
 0.9999 0.0001
2
 1 3.3e-07
2
 0.9999 0.0001
2
 0.99995 5e-05
2
 0.99998 2e-05
2
 0.9999 0.0001
2
 0.9999 0.0001
2
 0.999999 8.1e-07
2
 0.9986 0.0014
2
 0.99989 0.00011
2
 0.99999 1e-05
2
 0.99991 9e-05
2
 0.99989 0.00011
2
 0.99989 0.00011
2
 0.999996 3.67e-06
2
 0.9999 0.0001
2
 0.9995 0.0005
2
 0.999995 5.26e-06
2
 0.9985 0.0015
2
 0.999943 5.69e-05
2
 0.99999 9.61e-06
2
 0.999913 8.704e-05
2
 0.999999 9.9e-07
2
 0.999999 1e-06
2
 1 6e-08
2
 0.999998 2e-06
2
 0.999999 1e-06
2
 0.999999 1e-06
2
 0.99989 0.00011
2
 0.999 0.001
2
 0.99974 0.00026
2
 0.999964 3.587e-05
2
 0.99996 4e-05
2
 0.9994 0.0006
2
 0.9999 0.0001
2
 0.99989 0.00011
2
 0.99982 0.00018
2
 0.999995 5.24e-06
2
 0.9999 0.0001
2
 0.9999 0.0001
2
 0.99981 0.00019
2
 0.9999 0.0001
2
 0.9999 0.0001
2
 1 1e-08
2
 1 1.2e-07
2
 1 1.7e-07
2
 0.99995 5e-05
2
 0.999991 8.64e-06
2
 0.999996 3.57e-06
2
 1 1.1e-07
2
 0.9999 0.0001
2
 0.9999 0.0001
2
 0.9999 0.0001
2
 0.99998 2e-05
2
 0.99996 4e-05
2
 0.99988 0.00012
2
 1 9e-08
2
 0.995 0.005
2
 0.999973 2.7e-05
2
 1 1.1e-07
2
 0.9999 0.0001
2
 0.9999 0.0001
2
 1 2e-07
2
 0.999999 6e-07
2
 0.9999 0.0001
2
 0.99982 0.00018
2
 0.9999 0.0001
2
 0.99995 5e-05
2
 1 1e-08
2
 1 1.6e-07
2
 0.9999 0.0001
2
 1 2e-08
2
 0.999999 1e-06
2
 0.9999 0.0001
2
 0.9998 0.0002
2
 1 1e-08
2
 0.999997 2.88e-06
2
 0.9995 0.0005
2
 0.9994 0.0006
2
 0.99922 0.00078
2
 0.9998 0.0002
2
 0.99995 5e-05
2
 1 1e-08
2
 0.9999 0.0001
2
 0.99989 0.00011
2
 0.99996 4e-05
2
 0.9998 0.0002
2
 1 5e-07
2
 0.99999 1e-05
2
 0.99995 5e-05
2
 0.9999 0.0001
2
 0.99995 5e-05
2
 0.999999 1e-06
2
 0.99999 1e-05
2
 0.9999 0.0001
2
 1 7e-08
2
 0.9999 0.0001
2
 0.9995 0.0005
2
 0.9996 0.0004
2
 0.9999 0.0001
2
 0.9999 0.0001
2
 0.996 0.004
2
 0.9999 0.0001
2
 1 4e-08
2
 0.999998 2e-06
2
 0.99995 5e-05
2
 0.99984 0.00016
2
 0.9928 0.0072
2
 0.9999 0.0001
2
 0.999998 2.24e-06
2
 0.9997 0.0003
2
 0.99975 0.00025
2
 0.9999 0.0001
2
 0.999999 1e-06
2
 0.9998 0.0002
2
 0.999838 0.0001616
2
 0.9999 0.0001
2
 1 1e-08
2
 0.995 0.005
2
 0.99997 3e-05
2
 0.9988 0.0012
2
 0.9995 0.0005
2
 1 2.3e-07
2
 0.9995 0.0005
2
 0.9999 0.0001
2
 0.999979 2.06e-05
2
 0.999999 6.2e-07
2
 0.9999 0.0001
2
 0.99974 0.00026
2
 1 1.2e-07
2
 0.999999 6.6e-07
2
 0.99996 4e-05
2
 0.9995 0.0005
2
 0.99985 0.00015
2
 0.999994 6.29e-06
2
 0.999921 7.933e-05
2
 0.9996 0.0004
2
 0.9997 0.0003
2
 0.999997 2.82e-06
2
 0.99999 1e-05
2
 0.9995 0.0005
2
 0.9999 0.0001
2
 1 2e-08
2
 0.9998 0.0002
2
 1 2e-08
2
 1 3.1e-07
2
 0.9994 0.0006
2
 0.9999 0.0001
2
 0.9995 0.0005
2
 0.999907 9.332e-05
2
 0.999998 2e-06
2
 0.9999 0.0001
2
 0.9994 0.0006
2
 1 1e-08
2
 0.999993 6.69e-06
2
 0.9999 0.0001
2
 0.9999 0.0001
2
 0.999999 5.4e-07
2
 0.999993 6.53e-06
2
 0.999999 1e-06
2
 0.999999 1e-06
2
 0.999992 8e-06
2
 1 4e-08
2
 0.99975 0.00025
2
 0.996 0.004
2
 0.9999 0.0001
2
 1 2.9e-07
2
 0.999 0.001
2
 1 1.1e-07
2
 0.999994 6.39e-06
2
 0.9999 0.0001
2
 0.99999 1e-05
2
 0.994 0.006
2
 0.99999 1e-05
2
 0.999921 7.93e-05
2
 0.9995 0.0005
2
 0.99995 5e-05
2
 0.9999 0.0001
2
 0.9999 0.0001
2
 0.9995 0.0005
2
 0.99999 1e-05
2
 0.99999 1e-05
2
 0.999722 0.0002777
2
 0.999999 1e-06
2
 0.9999 0.0001
2
 0.9995 0.0005
2
 0.9999 0.0001
2
 1 1e-07
2
 0.99997 3e-05
2
 0.9997 0.0003
2
 0.9995 0.0005
2
 1 5e-07
2
 0.9999 0.0001
2
 1 1e-08
2
 0.9999 0.0001
2
 0.9999 0.0001
2
 0.9999 0.0001
2
 0.9991 0.0009
2
 0.9995 0.0005
2
 0.99994 6.019e-05
2
 1 1e-08
2
 0.9975 0.0025
2
 0.9995 0.0005
2
 0.9999 0.0001
2
 0.99875 0.00125
2
 0.9994 0.0006
2
 0.99989 0.00011
2
 0.99989 0.00011
2
 0.999999 1e-06
2
 0.99997 3e-05
2
 1 1.1e-07
2
 0.9999 0.0001
2
 1 4e-08
2
 0.999974 2.595e-05
2
 0.99997 3e-05
2
 1 5e-08
2
 0.9994 0.0006
2
 0.99999 1e-05
2
 1 2.3e-07
2
 0.999982 1.776e-05
2
 0.99996 4e-05
2
 1 5e-07
1
 1

